Maximize
	obj: 17.92 x1 + 13.79 x2 + 10.6 x3 + 8.16 x4 + 6.27 x5 + 4.83 x6 + 3.71 x7 + 2.86 x8 + 2.2 x9 + 1.69 x10 + 1 x11
Subject To
	c1: 1 x1 <= 1.4
	c2: 1.69 x1 + 1 x2 <= 1.96
	c3: 2.2 x1 + 1.69 x2 + 1 x3 <= 2.74
	c4: 2.86 x1 + 2.2 x2 + 1.69 x3 + 1 x4 <= 3.84
	c5: 3.71 x1 + 2.86 x2 + 2.2 x3 + 1.69 x4 + 1 x5 <= 5.38
	c6: 4.83 x1 + 3.71 x2 + 2.86 x3 + 2.2 x4 + 1.69 x5 + 1 x6 <= 7.53
	c7: 6.27 x1 + 4.83 x2 + 3.71 x3 + 2.86 x4 + 2.2 x5 + 1.69 x6 + 1 x7 <= 10.54
	c8: 8.16 x1 + 6.27 x2 + 4.83 x3 + 3.71 x4 + 2.86 x5 + 2.2 x6 + 1.69 x7 + 1 x8 <= 14.76
	c9: 10.6 x1 + 8.16 x2 + 6.27 x3 + 4.83 x4 + 3.71 x5 + 2.86 x6 + 2.2 x7 + 1.69 x8 + 1 x9 <= 20.66
	c10: 13.79 x1 + 10.6 x2 + 8.16 x3 + 6.27 x4 + 4.83 x5 + 3.71 x6 + 2.86 x7 + 2.2 x8 + 1.69 x9 + 1 x10 <= 28.93
	c11: 17.92 x1 + 13.79 x2 + 10.6 x3 + 8.16 x4 + 6.27 x5 + 4.83 x6 + 3.71 x7 + 2.86 x8 + 2.2 x9 + 1.69 x10 + 1 x11 <= 40.5
End